language ESSENCE' 1.0

letting jobs = 102
letting horizon = 795
letting resourcesRenew = 2
letting resourcesNonrenew = 2
letting resourceLimits = [44, 45, 417, 388]
letting successors = [[2, 3, 4, 5, 6, 7, 8, 9, 10, 12, 13, 14, 15, 16, 17, 19, 20, 23], [42, 39, 31, 29, 25, 22, 11], [64, 55, 46, 43, 41, 39, 38, 37, 36, 34, 33, 32, 28, 27, 24], [46, 43, 41, 39, 36, 33, 31, 29, 27, 21], [64, 63, 55, 47, 43, 42, 34, 33, 31, 30, 29, 27, 26], [63, 53, 48, 44, 41, 39, 36, 35, 33, 28, 21], [63, 48, 44, 43, 41, 36, 34, 33, 28, 21], [66, 63, 55, 47, 43, 39, 38, 28, 27, 26], [53, 50, 48, 46, 44, 42, 38, 36, 31, 21], [64, 63, 47, 33, 28, 18], [66, 55, 50, 49, 46, 40, 38, 36, 27, 26], [64, 63, 62, 59, 55, 47, 41, 40, 38, 37, 36, 35, 33], [58, 48, 44, 42, 39, 34, 21], [63, 58, 50, 48, 44, 41, 36, 21], [64, 55, 42, 40, 37, 36, 33, 27], [68, 63, 58, 56, 53, 51, 48, 44, 38, 28], [68, 62, 58, 48, 42, 38, 34, 33], [65, 60, 55, 51, 50, 45, 41, 38, 27], [66, 65, 64, 60, 59, 58, 57, 53, 49, 48, 47, 45, 44, 41, 38], [68, 66, 61, 59, 58, 55, 54, 53, 50, 49, 45, 36], [68, 66, 64, 60, 59, 57, 55, 54, 52, 51, 49, 47, 45, 40], [68, 59, 54, 51, 48, 47, 43, 33], [71, 63, 62, 60, 58, 50, 48, 44, 40, 37], [84, 80, 75, 71, 70, 66, 65, 63, 62, 61, 60, 54, 50, 49, 44], [84, 74, 70, 66, 65, 61, 60, 59, 56, 53, 51, 50, 43], [84, 67, 62, 61, 59, 56, 53, 41, 37], [75, 69, 68, 62, 59, 58, 57, 56, 54, 53, 48, 44], [101, 84, 79, 70, 65, 60, 52, 50, 49, 45, 42], [79, 68, 65, 62, 60, 57, 53, 49, 38], [72, 65, 58, 50, 48, 38], [84, 72, 67, 61, 60, 58, 37], [100, 83, 80, 76, 75, 74, 71, 70, 67, 65, 62, 61, 60, 58, 57, 56], [101, 100, 80, 79, 77, 71, 70, 66, 65, 60, 52, 50, 49], [60, 53, 51, 50, 40], [99, 84, 72, 71, 70, 69, 68, 54, 43], [101, 100, 75, 70, 67, 65, 60, 56, 52, 51], [100, 99, 93, 80, 78, 76, 75, 74, 73, 70, 68, 65, 57, 51], [101, 83, 80, 78, 75, 73, 71, 70, 69, 54, 52], [100, 84, 83, 80, 79, 77, 74, 61, 60, 50], [101, 100, 97, 93, 81, 78, 76, 75, 74, 73, 70, 69, 65, 56], [101, 98, 83, 80, 79, 78, 77, 75, 73, 71, 52], [100, 83, 77, 73, 69, 61, 59, 57], [100, 96, 90, 83, 82, 81, 78, 76, 75, 67, 58], [101, 98, 97, 79, 72, 67, 52], [100, 99, 98, 97, 96, 95, 83, 82, 78, 76, 72, 67, 62], [101, 99, 96, 94, 92, 83, 81, 76, 75, 74, 71, 63], [96, 82, 81, 80, 77, 74, 72, 61], [100, 84, 83, 81, 76, 67, 61], [99, 97, 96, 95, 91, 83, 78, 76, 72, 67], [99, 98, 97, 93, 87, 76, 69, 57], [97, 95, 91, 90, 87, 83, 82, 81, 79, 77, 69], [99, 96, 95, 94, 93, 92, 91, 90, 82, 81, 76, 74], [100, 96, 94, 90, 89, 87, 82, 77, 71], [100, 98, 97, 93, 91, 90, 89, 81, 77, 74], [98, 96, 95, 94, 93, 87, 84, 82, 81, 76], [99, 98, 96, 94, 91, 88, 77, 72], [96, 95, 92, 91, 90, 89, 86, 82, 81], [101, 97, 93, 91, 88, 79, 77], [94, 90, 88, 81, 80, 78], [95, 93, 88, 87, 78, 73], [98, 95, 94, 93, 91, 90, 88, 86, 85], [93, 92, 91, 90, 89, 88, 87, 86, 85], [97, 95, 91, 90, 89, 88, 87, 85], [93, 91, 88, 87, 86, 76], [96, 90, 87, 86, 85, 82], [95, 91, 90, 87, 86, 81], [94, 92, 87, 73], [98, 91, 90, 89, 87, 85], [96, 89, 88, 86, 85], [95, 90, 87, 86, 85], [93, 91, 88, 86, 85], [90, 89, 86, 85], [89, 86, 85], [87, 86, 85], [87, 86, 85], [89, 85], [92, 86], [92, 86], [94, 85], [97, 87], [85], [88], [88], [86], [102], [102], [102], [102], [102], [102], [102], [102], [102], [102], [102], [102], [102], [102], [102], [102], [102], []]
letting durations = [[0], [1, 3, 5], [7, 8, 10], [3, 3, 7], [2, 3, 8], [5, 6, 10], [1, 9, 10], [5, 7, 8], [4, 5, 6], [3, 4, 10], [6, 6, 8], [4, 8, 9], [1, 3, 8], [1, 5, 6], [1, 7, 7], [6, 9, 10], [1, 8, 10], [1, 6, 10], [7, 9, 10], [4, 6, 10], [1, 5, 9], [1, 3, 4], [1, 2, 9], [3, 3, 7], [1, 7, 8], [2, 6, 7], [1, 2, 8], [2, 4, 5], [2, 3, 9], [5, 6, 10], [2, 3, 5], [5, 7, 8], [3, 8, 10], [4, 8, 8], [1, 3, 4], [2, 3, 5], [2, 6, 8], [9, 9, 10], [1, 2, 7], [2, 4, 7], [2, 5, 9], [6, 7, 8], [8, 9, 9], [1, 4, 6], [1, 2, 7], [2, 8, 8], [5, 6, 7], [2, 5, 6], [1, 3, 4], [1, 5, 9], [2, 9, 10], [3, 10, 10], [3, 9, 10], [1, 1, 5], [1, 2, 4], [5, 6, 10], [3, 5, 9], [3, 10, 10], [1, 4, 7], [2, 8, 9], [2, 4, 7], [1, 4, 7], [2, 9, 10], [7, 7, 9], [5, 6, 10], [1, 3, 6], [2, 5, 9], [3, 4, 10], [1, 5, 8], [3, 4, 5], [6, 7, 9], [2, 3, 3], [3, 3, 8], [3, 7, 9], [1, 7, 10], [1, 3, 6], [8, 9, 10], [2, 3, 7], [4, 4, 10], [1, 2, 3], [9, 10, 10], [5, 8, 10], [3, 4, 5], [2, 5, 7], [3, 8, 10], [4, 5, 8], [1, 8, 8], [2, 4, 6], [3, 9, 10], [1, 3, 4], [4, 7, 9], [5, 7, 10], [1, 2, 4], [3, 5, 10], [1, 4, 10], [5, 8, 9], [4, 4, 9], [1, 2, 10], [1, 6, 8], [2, 5, 5], [2, 7, 10], [0]]
letting resourceUsage = [[[0, 0, 0, 0]], [[4, 4, 9, 0], [3, 3, 0, 3], [3, 2, 0, 2]], [[2, 1, 9, 0], [1, 1, 0, 6], [1, 1, 1, 0]], [[4, 2, 7, 0], [2, 2, 0, 7], [2, 2, 5, 0]], [[4, 4, 0, 6], [4, 3, 0, 4], [4, 3, 0, 3]], [[4, 4, 0, 8], [4, 4, 0, 7], [3, 4, 3, 0]], [[2, 3, 6, 0], [1, 2, 0, 6], [1, 1, 3, 0]], [[2, 3, 10, 0], [1, 2, 0, 3], [1, 2, 0, 2]], [[1, 2, 7, 0], [1, 2, 6, 0], [1, 2, 0, 8]], [[4, 4, 0, 7], [2, 3, 5, 0], [2, 3, 3, 0]], [[3, 4, 0, 6], [2, 2, 8, 0], [2, 1, 0, 4]], [[4, 4, 6, 0], [3, 4, 5, 0], [3, 4, 4, 0]], [[2, 5, 0, 4], [2, 4, 6, 0], [2, 2, 2, 0]], [[3, 3, 9, 0], [3, 2, 6, 0], [3, 1, 0, 6]], [[4, 4, 9, 0], [3, 2, 0, 3], [3, 1, 4, 0]], [[4, 2, 0, 7], [3, 2, 6, 0], [3, 2, 5, 0]], [[3, 5, 0, 8], [3, 2, 3, 0], [3, 1, 0, 4]], [[4, 2, 0, 7], [2, 1, 5, 0], [2, 1, 0, 7]], [[4, 2, 0, 6], [3, 2, 7, 0], [1, 2, 4, 0]], [[3, 3, 6, 0], [3, 3, 0, 4], [2, 3, 4, 0]], [[1, 4, 7, 0], [1, 2, 0, 4], [1, 1, 6, 0]], [[2, 5, 0, 2], [1, 4, 10, 0], [1, 4, 9, 0]], [[4, 4, 0, 4], [4, 3, 0, 3], [4, 3, 0, 2]], [[3, 1, 0, 3], [3, 1, 1, 0], [2, 1, 0, 3]], [[3, 3, 0, 10], [3, 2, 5, 0], [3, 2, 4, 0]], [[5, 2, 8, 0], [5, 1, 6, 0], [5, 1, 4, 0]], [[3, 4, 6, 0], [3, 4, 5, 0], [3, 3, 3, 0]], [[5, 1, 7, 0], [5, 1, 0, 7], [5, 1, 0, 6]], [[3, 1, 9, 0], [1, 1, 0, 6], [1, 1, 0, 3]], [[4, 5, 0, 7], [4, 4, 6, 0], [4, 4, 0, 4]], [[3, 3, 6, 0], [3, 3, 5, 0], [3, 3, 0, 9]], [[5, 3, 0, 7], [4, 3, 4, 0], [4, 3, 3, 0]], [[2, 5, 0, 5], [1, 5, 7, 0], [1, 5, 5, 0]], [[2, 3, 0, 9], [2, 3, 0, 8], [2, 3, 2, 0]], [[3, 3, 0, 6], [3, 3, 7, 0], [3, 3, 0, 5]], [[4, 2, 0, 4], [4, 2, 0, 2], [4, 2, 4, 0]], [[4, 4, 7, 0], [3, 3, 5, 0], [3, 3, 4, 0]], [[5, 1, 8, 0], [4, 1, 0, 8], [4, 1, 5, 0]], [[4, 3, 3, 0], [2, 3, 2, 0], [2, 2, 1, 0]], [[4, 5, 3, 0], [3, 4, 0, 1], [3, 2, 0, 1]], [[4, 4, 0, 6], [3, 3, 0, 6], [3, 2, 0, 5]], [[3, 3, 7, 0], [2, 3, 4, 0], [1, 1, 4, 0]], [[4, 4, 3, 0], [4, 4, 2, 0], [4, 4, 0, 3]], [[4, 5, 0, 9], [4, 3, 0, 6], [4, 3, 0, 5]], [[1, 2, 0, 1], [1, 2, 10, 0], [1, 2, 9, 0]], [[2, 3, 9, 0], [2, 3, 0, 4], [2, 3, 5, 0]], [[2, 5, 6, 0], [1, 5, 5, 0], [1, 5, 4, 0]], [[2, 3, 2, 0], [2, 2, 0, 10], [2, 2, 2, 0]], [[1, 4, 8, 0], [1, 4, 7, 0], [1, 3, 7, 0]], [[3, 5, 0, 9], [3, 5, 8, 0], [2, 5, 0, 3]], [[3, 3, 0, 9], [2, 3, 0, 7], [1, 3, 0, 5]], [[4, 4, 7, 0], [3, 3, 6, 0], [2, 3, 0, 4]], [[4, 3, 0, 9], [2, 1, 7, 0], [2, 1, 1, 0]], [[4, 1, 0, 10], [3, 1, 9, 0], [3, 1, 0, 8]], [[2, 4, 0, 8], [2, 4, 0, 6], [2, 4, 0, 5]], [[5, 3, 0, 6], [4, 3, 0, 4], [2, 3, 0, 3]], [[1, 2, 0, 9], [1, 2, 0, 7], [1, 1, 6, 0]], [[4, 1, 7, 0], [3, 1, 7, 0], [2, 1, 0, 4]], [[4, 4, 0, 10], [4, 2, 3, 0], [2, 2, 0, 6]], [[3, 5, 0, 4], [2, 4, 0, 3], [1, 3, 2, 0]], [[3, 3, 0, 8], [3, 1, 5, 0], [3, 1, 0, 2]], [[3, 4, 10, 0], [3, 4, 4, 0], [2, 4, 3, 0]], [[4, 1, 2, 0], [4, 1, 1, 0], [3, 1, 2, 0]], [[1, 1, 0, 7], [1, 1, 4, 0], [1, 1, 0, 6]], [[4, 4, 0, 7], [3, 3, 7, 0], [3, 2, 0, 2]], [[3, 4, 10, 0], [3, 3, 7, 0], [1, 3, 6, 0]], [[2, 1, 0, 10], [2, 1, 3, 0], [2, 1, 0, 9]], [[3, 2, 0, 8], [3, 1, 5, 0], [2, 1, 4, 0]], [[2, 4, 8, 0], [2, 3, 6, 0], [2, 2, 0, 3]], [[4, 2, 0, 7], [3, 2, 0, 4], [3, 2, 0, 3]], [[2, 3, 8, 0], [2, 3, 0, 6], [2, 2, 0, 6]], [[4, 5, 2, 0], [3, 4, 1, 0], [1, 3, 0, 2]], [[4, 3, 0, 5], [3, 1, 5, 0], [2, 1, 4, 0]], [[5, 5, 5, 0], [3, 5, 5, 0], [1, 5, 0, 1]], [[4, 4, 0, 9], [4, 4, 0, 8], [2, 3, 1, 0]], [[2, 2, 0, 4], [2, 2, 5, 0], [2, 2, 4, 0]], [[1, 2, 3, 0], [1, 2, 2, 0], [1, 2, 1, 0]], [[4, 4, 0, 8], [4, 3, 4, 0], [4, 3, 3, 0]], [[4, 4, 9, 0], [2, 4, 0, 3], [2, 4, 0, 2]], [[5, 2, 8, 0], [4, 2, 6, 0], [3, 2, 6, 0]], [[5, 4, 8, 0], [3, 4, 0, 5], [3, 4, 5, 0]], [[2, 3, 0, 7], [2, 3, 6, 0], [2, 1, 0, 7]], [[3, 1, 7, 0], [2, 1, 5, 0], [2, 1, 4, 0]], [[4, 1, 10, 0], [4, 1, 0, 8], [3, 1, 10, 0]], [[3, 2, 0, 6], [3, 2, 0, 5], [1, 1, 3, 0]], [[2, 4, 0, 9], [1, 2, 0, 7], [1, 2, 6, 0]], [[3, 3, 7, 0], [3, 3, 5, 0], [3, 3, 0, 4]], [[3, 2, 0, 5], [2, 2, 0, 4], [2, 2, 0, 3]], [[2, 2, 7, 0], [2, 2, 5, 0], [2, 1, 0, 6]], [[4, 4, 0, 8], [3, 2, 4, 0], [3, 2, 0, 6]], [[2, 2, 7, 0], [2, 2, 0, 6], [2, 2, 2, 0]], [[5, 2, 0, 8], [4, 1, 4, 0], [3, 1, 3, 0]], [[5, 2, 0, 3], [3, 1, 0, 2], [3, 1, 0, 1]], [[2, 1, 10, 0], [2, 1, 0, 2], [2, 1, 0, 1]], [[3, 4, 0, 5], [3, 3, 0, 4], [2, 3, 0, 4]], [[3, 2, 4, 0], [3, 2, 3, 0], [3, 2, 2, 0]], [[3, 4, 0, 1], [2, 3, 5, 0], [1, 3, 0, 1]], [[3, 3, 0, 5], [2, 2, 3, 0], [2, 2, 0, 4]], [[4, 4, 0, 3], [3, 3, 0, 3], [2, 2, 4, 0]], [[2, 3, 0, 9], [1, 3, 7, 0], [1, 3, 0, 5]], [[4, 2, 9, 0], [4, 1, 9, 0], [4, 1, 0, 5]], [[0, 0, 0, 0]]]
